'hugeuniform104'
150 75 75
144
142
141
140
139
135
135
133
131
129
128
125
125
120
117
116
115
114
109
108
106
105
104
104
94
94
93
92
91
90
90
89
86
81
77
75
73
72
69
61
60
56
55
55
53
47
47
46
45
40
40
40
39
36
36
36
35
35
31
31
30
29
29
28
26
24
23
23
20
16
14
12
11
8
1
